Maximize
  0 x0 - 15 x1 + 0 x2 + 42 x3 - 12 x4 + 0 x5 - 13 x6 + 0 x7 + 0 x8 + 0 x9
   + 11 x10 - 29 x11 + 12 x12 - 35 x13 + 0 x14 + 0 x15 + 0 x16 - 17 x17
   + 11 x18 + 0 x19 + 0 x20 + 0 x21 - 34 x22 + 24 x23 + 13 x24 - 30 x25
   + 0 x26 + 20 x27 - 5 x28 + 0 x29 + 0 x30 + 0 x31 - 46 x32 + 0 x33
   + 0 x34 + 0 x35 + 0 x36 + 45 x37 + 0 x38 + 0 x39 + 43 x40 - 8 x41
   + 38 x42 - x43 - 32 x44 + 0 x45 + 0 x46 + 0 x47 + 26 x48 + 0 x49 + 0 x50
   + 0 x51 + 34 x52 + 0 x53 - 47 x54 - 42 x55 + 0 x56 - 30 x57 - 15 x58
   + 19 x59 - 31 x60 + 0 x61 + 0 x62 + 0 x63 + 0 x64 - 27 x65 + 47 x66
   + 15 x67 - 19 x68 + 0 x69 + [ - 32 x0 ^2 - 40 x0 * x2 - 36 x0 * x8
   + 2 x0 * x9 - 58 x0 * x10 + 82 x0 * x12 + 28 x0 * x15 + 86 x0 * x16
   - 30 x0 * x17 - 74 x0 * x20 - 14 x0 * x21 - 58 x0 * x24 + 86 x0 * x28
   + 80 x0 * x37 + 76 x0 * x39 - 92 x0 * x41 - 40 x0 * x42 - 44 x0 * x44
   + 10 x0 * x46 + 72 x0 * x47 + 28 x0 * x49 - 10 x0 * x50 + 56 x0 * x53
   - 92 x0 * x54 + 44 x0 * x55 + 10 x0 * x56 + 56 x0 * x58 + 52 x0 * x61
   + 16 x0 * x65 - 24 x0 * x66 + 72 x0 * x67 + 42 x1 * x2 - 62 x1 * x3
   - 88 x1 * x4 - 98 x1 * x5 - 26 x1 * x9 + 80 x1 * x14 + 52 x1 * x15
   - 90 x1 * x17 - 36 x1 * x18 + 96 x1 * x19 - 18 x1 * x20 + 74 x1 * x22
   + 42 x1 * x25 - 98 x1 * x26 + 78 x1 * x27 + 54 x1 * x31 + 48 x1 * x34
   - 92 x1 * x35 + 68 x1 * x36 + 44 x1 * x37 - 70 x1 * x38 - 80 x1 * x39
   + 80 x1 * x42 - 62 x1 * x44 + 8 x1 * x48 - 46 x1 * x49 - 20 x1 * x51
   + 86 x1 * x53 - 8 x1 * x55 - 8 x1 * x56 - 88 x1 * x57 + 12 x1 * x58
   - 84 x1 * x59 + 78 x1 * x60 + 16 x1 * x64 + 6 x1 * x65 + 34 x1 * x69
   + 29 x2 ^2 + 76 x2 * x3 - 80 x2 * x4 - 26 x2 * x5 - 84 x2 * x6
   + 50 x2 * x9 - 72 x2 * x11 - 20 x2 * x13 + 54 x2 * x14 + 4 x2 * x16
   - 98 x2 * x17 + 56 x2 * x19 - 2 x2 * x24 + 58 x2 * x30 - 86 x2 * x33
   + 76 x2 * x35 - 34 x2 * x37 + 90 x2 * x38 + 58 x2 * x39 - 38 x2 * x42
   + 22 x2 * x43 - 22 x2 * x46 - 54 x2 * x51 + 48 x2 * x53 + 92 x2 * x60
   - 92 x2 * x65 - 40 x2 * x66 - 14 x2 * x69 + 10 x3 * x5 - 78 x3 * x10
   - 82 x3 * x11 - 76 x3 * x13 + 40 x3 * x14 - 74 x3 * x19 - 34 x3 * x20
   - 46 x3 * x22 - 66 x3 * x25 + 76 x3 * x31 - 14 x3 * x34 + 98 x3 * x37
   - 38 x3 * x38 - 94 x3 * x41 + 84 x3 * x44 - 30 x3 * x45 - 62 x3 * x50
   - 80 x3 * x51 + 96 x3 * x52 + 62 x3 * x56 + 36 x3 * x60 + 24 x3 * x61
   - 54 x3 * x62 + 8 x3 * x63 - 14 x3 * x66 - 22 x3 * x67 + 72 x3 * x68
   + 10 x3 * x69 - 44 x4 ^2 - 68 x4 * x5 - 10 x4 * x6 - 36 x4 * x7
   - 64 x4 * x9 + 86 x4 * x12 - 72 x4 * x14 - 48 x4 * x15 - 58 x4 * x16
   + 64 x4 * x21 + 70 x4 * x23 - 6 x4 * x24 - 56 x4 * x25 + 34 x4 * x28
   - 10 x4 * x29 + 8 x4 * x31 - 46 x4 * x35 - 70 x4 * x38 - 78 x4 * x39
   + 34 x4 * x40 - 54 x4 * x41 - 30 x4 * x42 + 22 x4 * x46 + 58 x4 * x48
   + 96 x4 * x56 - 94 x4 * x57 + 46 x4 * x58 + 94 x4 * x60 + 70 x4 * x61
   + 8 x4 * x62 + 80 x4 * x64 - 24 x4 * x65 - 96 x4 * x67 + 4 x5 ^2
   - 14 x5 * x6 - 52 x5 * x8 + 2 x5 * x9 - 66 x5 * x10 - 56 x5 * x11
   - 40 x5 * x12 + 96 x5 * x14 + 96 x5 * x15 - 18 x5 * x18 + 32 x5 * x19
   - 78 x5 * x20 + 18 x5 * x21 - 28 x5 * x22 - 52 x5 * x23 - 46 x5 * x24
   + 8 x5 * x30 - 26 x5 * x31 - 6 x5 * x34 + 62 x5 * x36 - 92 x5 * x37
   + 44 x5 * x38 - 98 x5 * x48 - 66 x5 * x49 - 64 x5 * x53 - 32 x5 * x54
   + 64 x5 * x55 - 72 x5 * x56 + 80 x5 * x57 + 32 x5 * x59 + 78 x5 * x62
   + 86 x5 * x66 - 20 x5 * x69 + 25 x6 ^2 + 74 x6 * x7 + 44 x6 * x8
   - 94 x6 * x10 + 38 x6 * x11 - 98 x6 * x12 - 96 x6 * x14 + 86 x6 * x15
   + 52 x6 * x16 + 62 x6 * x17 - 98 x6 * x18 + 34 x6 * x20 - 36 x6 * x21
   - 32 x6 * x25 + 16 x6 * x27 + 48 x6 * x31 - 94 x6 * x33 + 54 x6 * x34
   - 86 x6 * x35 - 18 x6 * x38 - 8 x6 * x39 + 44 x6 * x40 + 4 x6 * x41
   + 64 x6 * x42 - 8 x6 * x43 - 28 x6 * x46 - 82 x6 * x47 - 18 x6 * x49
   - 60 x6 * x50 + 80 x6 * x51 + 30 x6 * x53 - 24 x6 * x58 - 28 x6 * x61
   + 8 x6 * x62 - 58 x6 * x63 + 76 x6 * x64 + 12 x6 * x66 + 98 x6 * x67
   - 28 x6 * x68 - 39 x7 ^2 - 4 x7 * x8 - 80 x7 * x9 - 46 x7 * x11
   + 90 x7 * x13 - 96 x7 * x15 + 66 x7 * x21 + 42 x7 * x22 - 80 x7 * x23
   - 22 x7 * x24 + 50 x7 * x26 + 18 x7 * x28 + 38 x7 * x30 + 66 x7 * x32
   + 12 x7 * x35 - 32 x7 * x36 - 24 x7 * x37 + 62 x7 * x40 + 14 x7 * x41
   + 66 x7 * x42 - 24 x7 * x46 - 94 x7 * x47 + 82 x7 * x48 + 48 x7 * x49
   - 70 x7 * x50 - 60 x7 * x51 - 96 x7 * x52 - 60 x7 * x55 + 52 x7 * x58
   - 80 x7 * x59 - 62 x7 * x63 + 10 x7 * x64 + 86 x8 * x11 - 64 x8 * x17
   - 60 x8 * x19 - 58 x8 * x21 - 2 x8 * x23 + 60 x8 * x25 - 98 x8 * x26
   - 68 x8 * x29 - 44 x8 * x30 - 38 x8 * x32 - 18 x8 * x36 + 6 x8 * x37
   - 10 x8 * x38 - 98 x8 * x39 + 74 x8 * x46 - 20 x8 * x47 - 14 x8 * x50
   + 84 x8 * x52 - 86 x8 * x54 - 56 x8 * x55 + 90 x8 * x57 - 78 x8 * x60
   + 88 x8 * x63 - 84 x8 * x65 - 40 x8 * x67 + 8 x8 * x69 - 33 x9 ^2
   + 62 x9 * x11 - 30 x9 * x12 + 38 x9 * x13 - 44 x9 * x14 - 18 x9 * x16
   + 42 x9 * x18 - 44 x9 * x20 - 32 x9 * x22 + 66 x9 * x24 + 98 x9 * x25
   + 36 x9 * x26 + 78 x9 * x28 + 80 x9 * x30 + 26 x9 * x31 + 14 x9 * x32
   + 50 x9 * x36 + 42 x9 * x37 + 68 x9 * x38 - 12 x9 * x39 + 92 x9 * x41
   - 66 x9 * x42 - 50 x9 * x43 + 78 x9 * x44 - 88 x9 * x48 + 84 x9 * x52
   + 58 x9 * x53 - 90 x9 * x55 - 82 x9 * x56 - 66 x9 * x61 + 18 x9 * x62
   + 78 x9 * x63 - 12 x9 * x66 - 2 x9 * x69 - 4 x10 ^2 - 82 x10 * x14
   - 68 x10 * x15 - 38 x10 * x16 - 56 x10 * x17 - 62 x10 * x20
   - 78 x10 * x22 + 76 x10 * x23 + 60 x10 * x24 + 26 x10 * x27
   + 10 x10 * x29 + 56 x10 * x34 + 94 x10 * x37 + 72 x10 * x38
   - 70 x10 * x43 - 96 x10 * x44 - 12 x10 * x46 + 56 x10 * x49
   - 20 x10 * x52 - 94 x10 * x54 - 98 x10 * x57 - 68 x10 * x58
   - 30 x10 * x61 + 52 x10 * x62 + 18 x10 * x66 - 56 x10 * x69
   - 52 x11 * x12 + 72 x11 * x13 + 16 x11 * x15 + 50 x11 * x16
   + 36 x11 * x20 + 98 x11 * x21 + 16 x11 * x22 + 6 x11 * x23
   + 64 x11 * x24 - 20 x11 * x25 - 92 x11 * x26 + 92 x11 * x27
   + 22 x11 * x31 - 74 x11 * x32 + 62 x11 * x33 + 58 x11 * x34
   - 86 x11 * x35 - 16 x11 * x37 + 40 x11 * x38 - 74 x11 * x43
   + 80 x11 * x44 - 78 x11 * x46 - 8 x11 * x49 - 46 x11 * x51 - 2 x11 * x52
   - 36 x11 * x54 - 98 x11 * x56 - 28 x11 * x57 + 14 x11 * x59
   - 80 x11 * x60 - 14 x11 * x62 - 62 x11 * x64 + 42 x11 * x65
   + 68 x11 * x67 + 14 x12 * x16 - 58 x12 * x17 + 84 x12 * x18
   - 70 x12 * x20 + 36 x12 * x21 + 6 x12 * x26 + 40 x12 * x27
   - 66 x12 * x29 - 56 x12 * x34 + 54 x12 * x36 + 26 x12 * x37
   + 34 x12 * x40 - 6 x12 * x44 + 36 x12 * x46 - 92 x12 * x60
   + 24 x12 * x62 - 8 x12 * x64 - 62 x12 * x66 - 2 x12 * x67 + 49 x13 ^2
   - 80 x13 * x16 - 46 x13 * x17 + 40 x13 * x18 + 4 x13 * x19
   + 14 x13 * x20 + 50 x13 * x21 - 16 x13 * x22 - 96 x13 * x29
   + 64 x13 * x33 + 66 x13 * x34 + 54 x13 * x35 - 38 x13 * x37
   + 48 x13 * x39 + 2 x13 * x41 - 80 x13 * x43 + 96 x13 * x49
   - 38 x13 * x53 + 78 x13 * x54 + 70 x13 * x55 + 84 x13 * x56
   - 14 x13 * x57 - 70 x13 * x60 - 50 x13 * x65 + 60 x13 * x68
   - 40 x13 * x69 + 84 x14 * x15 + 44 x14 * x16 - 16 x14 * x17
   + 16 x14 * x18 + 90 x14 * x19 + 74 x14 * x20 + 80 x14 * x28
   + 12 x14 * x30 + 56 x14 * x33 - 76 x14 * x34 - 94 x14 * x35
   - 28 x14 * x38 + 46 x14 * x39 + 30 x14 * x40 - 98 x14 * x42
   + 72 x14 * x44 + 84 x14 * x45 + 46 x14 * x46 + 20 x14 * x50
   - 94 x14 * x52 - 78 x14 * x54 - 12 x14 * x55 + 56 x14 * x58
   - 32 x14 * x59 - 22 x14 * x60 - 12 x14 * x63 - 32 x14 * x64
   + 34 x14 * x66 - 54 x14 * x69 + 35 x15 ^2 - 92 x15 * x16 - 24 x15 * x17
   + 34 x15 * x19 + 2 x15 * x25 - 22 x15 * x28 + 40 x15 * x36
   + 22 x15 * x38 - 28 x15 * x40 + 4 x15 * x42 - 64 x15 * x43
   + 54 x15 * x44 - 80 x15 * x45 - 20 x15 * x46 - 4 x15 * x49
   - 98 x15 * x50 - 26 x15 * x51 - 32 x15 * x52 + 18 x15 * x54
   + 68 x15 * x60 + 70 x15 * x61 + 56 x15 * x66 - 16 x15 * x68 + 19 x16 ^2
   - 10 x16 * x17 + 84 x16 * x18 - 90 x16 * x20 - 14 x16 * x23
   + 16 x16 * x24 + 20 x16 * x25 + 66 x16 * x30 + 8 x16 * x31
   - 90 x16 * x34 + 20 x16 * x37 - 84 x16 * x38 - 24 x16 * x39
   - 24 x16 * x41 + 92 x16 * x42 - 82 x16 * x45 - 80 x16 * x47
   + 16 x16 * x50 + 90 x16 * x52 - 28 x16 * x54 - 48 x16 * x55
   - 86 x16 * x58 + 2 x16 * x59 + 12 x16 * x62 + 68 x16 * x66
   + 64 x16 * x68 - 80 x17 * x18 + 32 x17 * x19 - 8 x17 * x20
   + 36 x17 * x22 - 86 x17 * x23 - 2 x17 * x24 - 82 x17 * x26
   - 94 x17 * x27 - 84 x17 * x31 - 28 x17 * x34 + 10 x17 * x36
   + 18 x17 * x41 + 20 x17 * x42 - 50 x17 * x44 - 92 x17 * x54
   + 6 x17 * x55 - 92 x17 * x56 - 16 x17 * x59 + 72 x17 * x60
   + 60 x17 * x63 - 14 x17 * x64 + 56 x17 * x65 + 6 x17 * x67
   - 44 x17 * x68 + 4 x17 * x69 + 4 x18 * x20 + 46 x18 * x23 - 20 x18 * x27
   + 38 x18 * x28 - 12 x18 * x30 - 36 x18 * x35 + 44 x18 * x40
   - 58 x18 * x41 + 60 x18 * x42 + 74 x18 * x44 + 56 x18 * x46
   + 30 x18 * x50 - 96 x18 * x51 - 20 x18 * x54 - 88 x18 * x56
   + 10 x18 * x57 + 78 x18 * x59 + 98 x18 * x60 - 84 x18 * x61
   + 16 x18 * x63 + 28 x18 * x65 + 20 x18 * x69 + 98 x19 * x22
   - 22 x19 * x25 + 34 x19 * x28 - 66 x19 * x29 - 78 x19 * x31
   - 60 x19 * x33 - 98 x19 * x34 - 28 x19 * x35 + 68 x19 * x36
   + 22 x19 * x39 + 88 x19 * x45 - 16 x19 * x48 - 34 x19 * x52
   + 60 x19 * x54 + 70 x19 * x56 - 4 x19 * x58 - 48 x19 * x61 - 4 x19 * x63
   - 82 x19 * x65 + 22 x19 * x69 - 4 x20 * x21 + 76 x20 * x24
   + 84 x20 * x25 - 92 x20 * x29 + 26 x20 * x32 - 8 x20 * x33
   + 20 x20 * x34 - 64 x20 * x35 + 42 x20 * x37 - 78 x20 * x39
   - 68 x20 * x40 + 44 x20 * x41 + 38 x20 * x43 + 14 x20 * x45
   - 30 x20 * x47 - 54 x20 * x49 - 60 x20 * x50 + 62 x20 * x51
   + 40 x20 * x52 + 58 x20 * x54 + 48 x20 * x55 + 44 x20 * x59
   + 94 x20 * x60 - 18 x20 * x63 + 40 x20 * x64 + 10 x20 * x65
   + 58 x20 * x66 + 84 x20 * x67 + 38 x21 * x23 - 52 x21 * x29
   + 42 x21 * x30 + 52 x21 * x31 + 52 x21 * x32 + 44 x21 * x34
   - 98 x21 * x36 - 16 x21 * x38 + 16 x21 * x39 + 60 x21 * x40
   - 44 x21 * x42 + 88 x21 * x43 - 98 x21 * x46 + 52 x21 * x48
   + 16 x21 * x52 + 36 x21 * x53 + 40 x21 * x55 + 28 x21 * x56
   + 78 x21 * x57 - 30 x21 * x59 + 70 x21 * x61 + 28 x21 * x62
   - 66 x21 * x65 + 66 x21 * x66 + 32 x21 * x67 - 42 x21 * x69 - 37 x22 ^2
   + 86 x22 * x23 - 20 x22 * x24 + 40 x22 * x25 - 22 x22 * x27
   + 34 x22 * x28 + 86 x22 * x31 - 14 x22 * x33 + 60 x22 * x34
   + 34 x22 * x35 - 84 x22 * x37 + 88 x22 * x40 - 34 x22 * x42
   - 68 x22 * x43 - 86 x22 * x44 - 84 x22 * x49 + 74 x22 * x50
   - 12 x22 * x51 + 96 x22 * x52 + 8 x22 * x53 + 18 x22 * x54
   - 52 x22 * x55 + 24 x22 * x56 + 14 x22 * x57 + 22 x22 * x58
   + 54 x22 * x59 - 42 x22 * x60 + 20 x22 * x63 - 26 x22 * x65
   - 22 x22 * x66 + 84 x22 * x68 + 39 x23 ^2 + 50 x23 * x25 + 54 x23 * x26
   + 60 x23 * x27 + 88 x23 * x30 + 92 x23 * x34 - 24 x23 * x35
   - 8 x23 * x36 + 74 x23 * x38 + 58 x23 * x39 + 66 x23 * x40
   + 74 x23 * x41 + 18 x23 * x43 + 18 x23 * x44 - 14 x23 * x46
   + 16 x23 * x47 + 66 x23 * x48 + 4 x23 * x50 + 52 x23 * x51
   - 32 x23 * x54 + 34 x23 * x59 - 76 x23 * x60 - 46 x23 * x62
   - 86 x23 * x64 + 14 x23 * x65 + 20 x23 * x66 + 52 x23 * x68
   - 84 x23 * x69 - 42 x24 * x25 - 60 x24 * x29 - 26 x24 * x31
   - 56 x24 * x34 - 58 x24 * x36 + 42 x24 * x38 - 58 x24 * x40
   - 16 x24 * x41 + 6 x24 * x44 + 84 x24 * x45 - 24 x24 * x47
   - 34 x24 * x49 + 52 x24 * x50 - 92 x24 * x58 + 88 x24 * x59
   + 6 x24 * x61 + 8 x24 * x64 + 82 x24 * x65 + 20 x24 * x66 + 66 x24 * x68
   - 88 x25 * x26 - 94 x25 * x29 + 66 x25 * x32 - 76 x25 * x33
   - 84 x25 * x34 - 70 x25 * x35 - 76 x25 * x37 + 14 x25 * x40
   + 4 x25 * x41 + 80 x25 * x44 + 76 x25 * x45 - 80 x25 * x46
   - 82 x25 * x51 - 46 x25 * x53 + 4 x25 * x55 + 20 x25 * x56
   + 54 x25 * x57 + 80 x25 * x59 + 60 x25 * x60 - 42 x25 * x61
   - 38 x25 * x63 + 8 x25 * x66 - 66 x25 * x67 + 8 x26 * x28 + 76 x26 * x30
   - 16 x26 * x34 - 56 x26 * x38 + 16 x26 * x42 + 70 x26 * x44
   - 62 x26 * x45 + 58 x26 * x48 + 54 x26 * x49 - 12 x26 * x59
   - 78 x26 * x60 + 16 x26 * x61 - 60 x26 * x64 - 36 x26 * x68
   - 54 x26 * x69 - 44 x27 ^2 + 2 x27 * x29 - 68 x27 * x31 + 50 x27 * x32
   + 18 x27 * x34 - 48 x27 * x37 + 32 x27 * x41 + 22 x27 * x43
   - 94 x27 * x46 + 14 x27 * x51 - 16 x27 * x53 - 24 x27 * x55
   + 32 x27 * x56 - 80 x27 * x57 - 82 x27 * x58 - 76 x27 * x59
   + 10 x27 * x60 - 34 x27 * x65 - 30 x27 * x67 + 16 x27 * x68 - 41 x28 ^2
   - 62 x28 * x29 - 80 x28 * x30 - 82 x28 * x33 + 72 x28 * x35
   + 46 x28 * x39 - 74 x28 * x42 + 90 x28 * x46 - 50 x28 * x47
   - 92 x28 * x48 - 46 x28 * x52 - 78 x28 * x53 - 82 x28 * x55
   + 10 x28 * x57 + 2 x28 * x58 - 80 x28 * x60 - 84 x28 * x62
   - 78 x28 * x63 + 92 x28 * x64 - 40 x28 * x65 + 22 x28 * x66
   - 76 x28 * x67 - 38 x28 * x69 - 29 x29 ^2 - 98 x29 * x30 + 32 x29 * x31
   + 98 x29 * x35 + 44 x29 * x37 - 22 x29 * x39 - 36 x29 * x40
   + 74 x29 * x42 - 92 x29 * x45 - 32 x29 * x48 - 54 x29 * x49
   - 52 x29 * x50 + 44 x29 * x51 - 76 x29 * x52 + 52 x29 * x54
   + 52 x29 * x55 + 24 x29 * x61 + 64 x29 * x62 + 36 x29 * x67 - 4 x30 ^2
   + 94 x30 * x31 + 16 x30 * x32 + 2 x30 * x35 + 86 x30 * x39
   + 96 x30 * x41 + 96 x30 * x42 - 96 x30 * x43 + 52 x30 * x44
   - 56 x30 * x45 + 26 x30 * x47 - 2 x30 * x49 + 24 x30 * x52
   + 80 x30 * x53 - 78 x30 * x58 - 94 x30 * x64 - 46 x30 * x66
   + 2 x30 * x67 + 92 x30 * x69 - 32 x31 * x32 - 68 x31 * x33
   - 84 x31 * x38 + 14 x31 * x41 + 22 x31 * x42 - 4 x31 * x43
   + 92 x31 * x44 - 86 x31 * x45 - 24 x31 * x46 + 6 x31 * x47 + 8 x31 * x48
   - 88 x31 * x49 + 58 x31 * x50 - 16 x31 * x52 - 44 x31 * x53
   - 48 x31 * x54 + 92 x31 * x59 + 98 x31 * x60 + 94 x31 * x62
   + 72 x31 * x64 + 64 x31 * x66 + 28 x31 * x68 + 40 x32 ^2 + 6 x32 * x33
   + 8 x32 * x34 + 74 x32 * x37 - 78 x32 * x40 + 84 x32 * x42
   - 38 x32 * x46 + 66 x32 * x47 + 48 x32 * x48 + 76 x32 * x49
   + 4 x32 * x52 + 64 x32 * x54 - 40 x32 * x57 + 82 x32 * x59
   - 42 x32 * x60 + 92 x32 * x63 - 10 x32 * x64 - 14 x32 * x65
   - 72 x32 * x67 - 24 x33 * x34 + 30 x33 * x38 + 16 x33 * x39
   - 66 x33 * x41 - 18 x33 * x42 + 22 x33 * x43 - 90 x33 * x44
   + 62 x33 * x45 - 92 x33 * x46 + 16 x33 * x47 - 20 x33 * x51
   - 40 x33 * x52 + 94 x33 * x53 + 2 x33 * x57 + 90 x33 * x59
   - 58 x33 * x60 + 50 x33 * x61 + 70 x33 * x62 - 60 x33 * x63
   - 26 x33 * x67 - 20 x33 * x68 - 14 x34 * x35 - 18 x34 * x36
   - 70 x34 * x37 + 82 x34 * x38 - 76 x34 * x40 - 26 x34 * x42
   - 30 x34 * x44 + 98 x34 * x45 - 12 x34 * x46 + 2 x34 * x47
   + 94 x34 * x48 + 76 x34 * x49 + 16 x34 * x50 - 54 x34 * x52
   - 96 x34 * x55 - 12 x34 * x56 + 48 x34 * x57 - 6 x34 * x58
   - 54 x34 * x60 - 52 x34 * x61 + 28 x34 * x62 + 20 x34 * x64
   + 28 x34 * x68 - 42 x35 * x36 - 90 x35 * x37 - 2 x35 * x38
   + 40 x35 * x39 - 80 x35 * x40 - 76 x35 * x41 + 86 x35 * x44
   + 32 x35 * x47 + 98 x35 * x52 - 80 x35 * x54 + 50 x35 * x56
   - 30 x35 * x57 + 92 x35 * x60 - 78 x35 * x61 + 46 x35 * x62
   + 40 x35 * x63 - 74 x35 * x67 - 76 x35 * x68 - 34 x36 ^2 + 90 x36 * x38
   - 38 x36 * x40 + 74 x36 * x42 + 88 x36 * x45 - 76 x36 * x47
   - 50 x36 * x50 - 26 x36 * x53 - 88 x36 * x54 - 92 x36 * x55
   + 42 x36 * x58 - 60 x36 * x59 - 52 x36 * x60 - 60 x36 * x61
   - 50 x36 * x62 - 70 x36 * x64 + 44 x36 * x66 - 28 x36 * x68
   - 48 x37 * x39 - 34 x37 * x44 + 30 x37 * x47 + 60 x37 * x49
   - 32 x37 * x51 + 82 x37 * x52 + 70 x37 * x54 - 44 x37 * x58
   + 64 x37 * x59 + 64 x37 * x61 + 36 x37 * x63 - 68 x37 * x68
   - 56 x37 * x69 + 28 x38 * x39 - 10 x38 * x40 + 58 x38 * x41
   - 90 x38 * x44 + 72 x38 * x45 + 14 x38 * x46 + 14 x38 * x47
   - 44 x38 * x49 + 60 x38 * x51 - 80 x38 * x57 - 54 x38 * x60
   - 74 x38 * x61 - 80 x38 * x64 - 54 x38 * x65 + 2 x38 * x66 + 6 x38 * x67
   + 18 x38 * x69 - 54 x39 * x41 - 40 x39 * x42 + 16 x39 * x43
   + 70 x39 * x44 + 58 x39 * x46 - 18 x39 * x47 + 38 x39 * x49
   + 56 x39 * x51 - 14 x39 * x54 - 14 x39 * x55 - 10 x39 * x56
   - 62 x39 * x58 - 80 x39 * x61 - 14 x39 * x63 + 20 x39 * x67
   + 8 x39 * x68 - 22 x39 * x69 - 90 x40 * x41 + 24 x40 * x43
   - 46 x40 * x50 + 64 x40 * x51 - 80 x40 * x52 + 54 x40 * x58
   + 8 x40 * x63 - 78 x40 * x64 - 54 x40 * x69 - 58 x41 * x49
   + 50 x41 * x52 + 28 x41 * x53 + 28 x41 * x54 - 96 x41 * x55
   - 8 x41 * x56 + 66 x41 * x57 - 68 x41 * x59 - 46 x41 * x60
   - 78 x41 * x63 - 36 x41 * x65 - 64 x41 * x66 - 58 x41 * x69
   + 92 x42 * x45 + 66 x42 * x46 - 54 x42 * x47 + 74 x42 * x48
   + 54 x42 * x49 - 46 x42 * x50 - 50 x42 * x51 - 38 x42 * x56
   + 74 x42 * x57 - 62 x42 * x59 - 30 x42 * x60 + 98 x42 * x61
   + 24 x42 * x62 + 84 x42 * x67 - 72 x42 * x68 - 58 x42 * x69
   - 8 x43 * x44 + 44 x43 * x45 + 98 x43 * x46 - 42 x43 * x47
   + 30 x43 * x48 - 88 x43 * x50 + 68 x43 * x51 - 4 x43 * x52
   - 48 x43 * x53 - 44 x43 * x56 - 86 x43 * x57 - 90 x43 * x58
   + 28 x43 * x59 + 68 x43 * x60 - 34 x43 * x61 + 34 x43 * x62
   + 72 x43 * x63 + 82 x43 * x64 - 8 x43 * x66 + 56 x43 * x67
   - 42 x43 * x68 + 43 x44 ^2 + 64 x44 * x45 + 42 x44 * x50 - 78 x44 * x51
   + 20 x44 * x56 + 40 x44 * x58 - 62 x44 * x60 + 52 x44 * x61
   + 6 x44 * x63 - 88 x44 * x64 - 34 x44 * x65 - 18 x44 * x67
   + 12 x44 * x69 + 48 x45 ^2 + 64 x45 * x48 - 56 x45 * x49 + 52 x45 * x50
   + 74 x45 * x52 + 90 x45 * x53 - 6 x45 * x55 + 48 x45 * x56
   - 66 x45 * x57 - 92 x45 * x60 + 72 x45 * x65 + 6 x45 * x67
   - 58 x45 * x68 + 37 x46 ^2 - 88 x46 * x47 - 36 x46 * x51 + 46 x46 * x52
   - 92 x46 * x56 - 88 x46 * x58 + 22 x46 * x59 - 6 x46 * x60
   - 78 x46 * x64 - 14 x46 * x65 + 54 x46 * x66 + 6 x46 * x67
   - 84 x46 * x68 + 30 x47 * x49 - 68 x47 * x51 - 28 x47 * x53
   + 20 x47 * x54 + 64 x47 * x57 + 20 x47 * x58 - 24 x47 * x60
   - 62 x47 * x61 + 90 x47 * x66 - 40 x47 * x67 + 72 x47 * x68
   + 42 x48 * x49 - 12 x48 * x50 + 62 x48 * x54 - 80 x48 * x55
   - 6 x48 * x58 + 2 x48 * x59 - 22 x48 * x62 + 20 x48 * x65 - 74 x48 * x67
   - 10 x48 * x68 - 76 x48 * x69 + 38 x49 * x52 + 38 x49 * x54
   - 36 x49 * x55 + 58 x49 * x56 + 78 x49 * x57 + 46 x49 * x58
   + 24 x49 * x59 - 40 x49 * x60 - 34 x49 * x65 + 20 x49 * x67
   - 28 x49 * x68 - 84 x49 * x69 + 31 x50 ^2 + 12 x50 * x55 + 50 x50 * x59
   + 54 x50 * x61 + 74 x50 * x62 + 26 x50 * x68 - 92 x50 * x69 - 28 x51 ^2
   + 10 x51 * x52 - 98 x51 * x55 + 8 x51 * x58 - 98 x51 * x59
   - 10 x51 * x60 - 52 x51 * x61 - 78 x51 * x62 - 78 x51 * x65
   - 44 x51 * x68 - 28 x52 ^2 - 30 x52 * x53 - 64 x52 * x57 + 30 x52 * x59
   - 64 x52 * x60 + 2 x52 * x61 - 80 x52 * x62 + 92 x52 * x63
   + 50 x52 * x64 - 6 x52 * x65 + 36 x52 * x66 + 98 x52 * x67
   - 62 x52 * x68 + 88 x52 * x69 - 5 x53 ^2 - 6 x53 * x54 - 8 x53 * x55
   - 36 x53 * x56 + 20 x53 * x58 - 30 x53 * x59 - 76 x53 * x65
   - 28 x53 * x68 - 10 x54 ^2 - 88 x54 * x57 - 92 x54 * x59 - 10 x54 * x61
   + 80 x54 * x62 - 94 x54 * x65 - 36 x54 * x67 - 62 x54 * x68
   - 82 x54 * x69 - 40 x55 ^2 - 54 x55 * x59 + 74 x55 * x60 + 30 x55 * x62
   - 62 x55 * x64 - 14 x55 * x69 + 17 x56 ^2 - 34 x56 * x57 - 34 x56 * x58
   - 52 x56 * x60 - 28 x56 * x61 + 68 x56 * x62 - 90 x56 * x65
   - 54 x56 * x69 - 10 x57 * x59 - 28 x57 * x66 + 54 x57 * x68
   + 70 x57 * x69 + 9 x58 ^2 + 44 x58 * x60 - 52 x58 * x62 + 40 x58 * x65
   - 14 x58 * x67 - 58 x59 * x60 + 92 x59 * x61 - 8 x59 * x65
   - 56 x59 * x69 + 31 x60 ^2 + 8 x60 * x61 + 74 x60 * x62 - 50 x60 * x65
   + 68 x60 * x67 - 58 x61 * x62 - 72 x61 * x65 + 76 x61 * x68 + 30 x62 ^2
   - 56 x62 * x63 + 38 x62 * x64 + 84 x62 * x65 + 18 x62 * x66
   - 14 x62 * x67 - 25 x63 ^2 - 46 x63 * x64 - 72 x63 * x66 - 60 x63 * x67
   - 24 x63 * x68 - 64 x64 * x68 - 46 x65 * x66 + 18 x65 * x68 + 11 x66 ^2
   - 24 x66 * x67 + 36 x66 * x68 - 86 x66 * x69 + 24 x67 ^2 + 86 x67 * x69
   ] / 2 
Subject To
Bounds
 x0 <= 1
 x1 <= 1
 x2 <= 1
 x3 <= 1
 x4 <= 1
 x5 <= 1
 x6 <= 1
 x7 <= 1
 x8 <= 1
 x9 <= 1
 x10 <= 1
 x11 <= 1
 x12 <= 1
 x13 <= 1
 x14 <= 1
 x15 <= 1
 x16 <= 1
 x17 <= 1
 x18 <= 1
 x19 <= 1
 x20 <= 1
 x21 <= 1
 x22 <= 1
 x23 <= 1
 x24 <= 1
 x25 <= 1
 x26 <= 1
 x27 <= 1
 x28 <= 1
 x29 <= 1
 x30 <= 1
 x31 <= 1
 x32 <= 1
 x33 <= 1
 x34 <= 1
 x35 <= 1
 x36 <= 1
 x37 <= 1
 x38 <= 1
 x39 <= 1
 x40 <= 1
 x41 <= 1
 x42 <= 1
 x43 <= 1
 x44 <= 1
 x45 <= 1
 x46 <= 1
 x47 <= 1
 x48 <= 1
 x49 <= 1
 x50 <= 1
 x51 <= 1
 x52 <= 1
 x53 <= 1
 x54 <= 1
 x55 <= 1
 x56 <= 1
 x57 <= 1
 x58 <= 1
 x59 <= 1
 x60 <= 1
 x61 <= 1
 x62 <= 1
 x63 <= 1
 x64 <= 1
 x65 <= 1
 x66 <= 1
 x67 <= 1
 x68 <= 1
 x69 <= 1
End
